p cnf 13 21
-13 -12 10 0
13 12 10 0
-13 12 -5 0
13 -8 5 0
13 4 -2 0
12 -11 7 0
11 -9 -1 0
11 7 -4 0
11 7 -1 0
11 -5 1 0
-11 -2 1 0
10 9 6 0
9 -8 5 0
-9 -7 -5 0
9 7 4 0
9 5 -4 0
8 -7 4 0
8 3 1 0
8 -3 1 0
-7 -2 1 0
5 -2 1 0
